p cnf 20 20
-13 10 -15 0
20 -8 10 0
-16 3 -12 0
-16 -18 -1 0
-9 -13 -16 0
-7 -9 19 0
-3 7 8 0
2 -18 -20 0
-1 13 9 0
-11 1 -17 0
3 13 -4 0
-1 11 -20 0
2 -9 -4 0
-13 -17 -1 0
-18 9 -10 0
-4 -11 -16 0
-3 2 -1 0
-6 -7 -4 0
-8 -3 -16 0
19 15 -16 0
